NAME : traveling-santa-2018-prime-paths.29544.tour
COMMENT : Length = 29544
COMMENT : Found by LKH [Keld Helsgaun] Sun Jun 12 19:59:34 2022
TYPE : TOUR
DIMENSION : 100
TOUR_SECTION
1
19
58
9
3
91
23
92
30
32
15
28
64
77
8
52
17
71
70
75
20
34
95
67
2
65
45
46
18
26
94
74
49
93
57
89
41
99
29
21
11
82
96
36
13
27
54
61
66
90
10
14
55
100
88
80
62
79
25
63
72
31
39
53
43
81
98
35
5
76
59
37
85
73
12
38
97
22
42
83
4
44
24
69
86
48
56
51
6
78
60
16
7
33
68
40
87
47
84
50
-1
EOF
